(set-logic ALL)
(declare-fun seed0_T_1 () Bool)
(declare-fun seed0_T_2 () Bool)
(declare-fun seed0_var_0xINPUT_272287 () String)
(assert (and (or (= seed0_T_1 (= seed0_var_0xINPUT_272287 "")) (str.contains (str.++ seed0_var_0xINPUT_272287 "PHX9MrtO24fVjYTEb8") (str.++ seed0_var_0xINPUT_272287 "DQxBG"))) (or (= seed0_T_2 (not seed0_T_1)) (not (str.prefixof (str.++ seed0_var_0xINPUT_272287 "HszwxmhlZtTqEG56n") (str.++ seed0_var_0xINPUT_272287 "XFjYHhG3wVfKQ5o")))) (or seed0_T_2 (str.contains (str.++ seed0_var_0xINPUT_272287 "Yd5QlJz") (str.++ seed0_var_0xINPUT_272287 "MPT5lnOB6Ff473Yu")))))
(check-sat)
(exit)